false false false
presolving:
presolving (0 rounds: 0 fast, 0 medium, 0 exhaustive):
 0 deleted vars, 0 deleted constraints, 0 added constraints, 0 tightened bounds, 0 added holes, 0 changed sides, 0 changed coefficients
 0 implications, 0 cliques
presolved problem has 67 variables (67 bin, 0 int, 0 impl, 0 cont) and 56 constraints
     56 constraints of type <linear>
transformed objective value is always integral (scale: 1)
Presolving Time: 0.00

 time | node  | left  |LP iter|LP it/n|mem/heur|mdpt |vars |cons |rows |cuts |sepa|confs|strbr|  dualbound   | primalbound  |  gap   | compl. 
p 0.0s|     1 |     0 |     0 |     - |shiftand|   0 |  67 |  56 |  56 |   0 |  0 |   0 |   0 |      --      | 1.100000e+01 |    Inf | unknown
 time | node  | left  |LP iter|LP it/n|mem/heur|mdpt |vars |cons |rows |cuts |sepa|confs|strbr|  dualbound   | primalbound  |  gap   | compl. 
  5.3s|     1 |     0 |    59 |     - |  5528k |   0 |1679 |  56 |  56 |   0 |  0 |   0 |   0 |-2.550000e+02 | 1.100000e+01 |    Inf | unknown
slurmstepd-htc-cmp455: error: *** JOB 16657437 ON htc-cmp455 CANCELLED AT 2024-01-28T05:14:05 DUE TO TIME LIMIT ***
